181
0 132 28 123 136 133 61 26 45 126 
141 107 31 105 149 2 119 76 158 112 
82 48 46 88 166 84 113 77 152 121 
80 25 142 78 43 151 3 9 169 172 
140 165 75 67 11 104 102 54 18 52 
146 157 65 42 144 93 14 100 115 137 
64 128 116 33 87 170 53 153 15 118 
49 180 98 71 89 173 85 161 168 20 
62 5 96 162 57 70 37 135 74 13 
114 148 171 41 175 134 106 91 156 55 
120 19 56 58 4 95 139 90 63 97 
164 154 36 39 117 167 129 34 122 110 
179 17 50 38 131 127 12 138 30 143 
147 22 125 7 145 8 73 35 69 47 
60 178 177 6 29 94 23 40 92 111 
99 21 27 59 150 81 32 44 24 16 
155 108 130 176 51 68 79 1 101 86 
124 159 103 72 174 160 66 10 163 83 
109 
